NAME: GRASP_12_6
TYPE: TSP
COMMENT: line_12_6
DIMENSION: 12
EDGE_WEIGHT_TYPE: EUC_2D
NODE_COORD_SECTION
1 0.0 61.0
2 0.0 65.0
3 0.0 27.0
4 0.0 93.0
5 0.0 54.0
6 0.0 56.0
7 0.0 4.0
8 0.0 20.0
9 0.0 80.0
10 0.0 41.0
11 0.0 25.0
12 0.0 38.0
